c preprocessed version of 1czp_graph, 94 vertices, 1195 edges
p td 94 1195
92 93
91 93
91 92
90 93
90 92
90 91
89 93
89 92
89 91
89 90
88 92
88 91
88 90
88 89
87 91
87 90
87 89
87 88
86 89
86 88
86 87
85 91
85 90
85 88
85 87
85 86
84 88
84 87
84 86
84 85
83 86
83 85
83 84
82 86
82 85
82 84
82 83
81 84
81 83
81 82
80 84
80 83
80 82
80 81
79 82
79 81
79 80
78 86
78 84
78 83
78 82
78 81
78 80
78 79
77 82
77 79
77 78
76 86
76 84
76 82
76 80
76 79
76 78
76 77
75 77
75 76
74 88
74 87
74 86
74 85
74 84
74 82
74 78
74 76
74 75
73 92
73 89
73 86
73 84
73 76
73 75
73 74
72 92
72 88
72 86
72 85
72 84
72 83
72 82
72 80
72 79
72 78
72 77
72 76
72 75
72 74
72 73
71 93
71 92
71 91
71 90
71 89
71 88
71 85
71 84
71 76
71 75
71 74
71 73
71 72
70 91
70 88
70 85
70 84
70 82
70 76
70 72
70 71
69 92
69 91
69 88
69 71
69 70
68 71
68 70
68 69
67 92
67 84
67 79
67 76
67 75
67 73
67 72
67 71
67 70
67 69
67 68
66 93
66 92
66 91
66 89
66 88
66 85
66 76
66 75
66 73
66 72
66 71
66 70
66 69
66 68
66 67
65 92
65 91
65 71
65 69
65 68
65 67
65 66
64 69
64 68
64 67
64 66
64 65
63 92
63 73
63 71
63 69
63 68
63 67
63 66
63 65
63 64
62 93
62 92
62 91
62 89
62 88
62 84
62 76
62 75
62 74
62 73
62 72
62 71
62 69
62 68
62 67
62 66
62 65
62 64
62 63
61 93
61 92
61 89
61 75
61 73
61 71
61 67
61 66
61 63
61 62
60 75
60 73
60 67
60 63
60 62
60 61
59 92
59 84
59 76
59 75
59 74
59 73
59 72
59 71
59 67
59 66
59 64
59 63
59 62
59 61
59 60
58 77
58 76
58 75
58 73
58 72
58 60
58 59
57 79
57 77
57 76
57 75
57 67
57 64
57 62
57 60
57 59
57 58
56 92
56 86
56 84
56 82
56 79
56 78
56 77
56 76
56 75
56 74
56 73
56 72
56 71
56 70
56 67
56 66
56 64
56 62
56 61
56 60
56 59
56 58
56 57
55 82
55 80
55 79
55 78
55 77
55 76
55 75
55 72
55 67
55 59
55 58
55 57
55 56
54 86
54 84
54 83
54 82
54 81
54 80
54 79
54 78
54 77
54 76
54 75
54 74
54 73
54 72
54 71
54 70
54 67
54 66
54 62
54 59
54 58
54 57
54 56
54 55
53 84
53 82
53 81
53 80
53 79
53 78
53 77
53 76
53 72
53 70
53 68
53 67
53 57
53 56
53 55
53 54
52 84
52 83
52 82
52 81
52 80
52 79
52 78
52 76
52 72
52 70
52 54
52 53
51 85
51 84
51 83
51 82
51 81
51 80
51 78
51 72
51 70
51 54
51 53
51 52
50 91
50 88
50 86
50 85
50 84
50 83
50 82
50 72
50 70
50 54
50 52
50 51
49 88
49 86
49 85
49 84
49 83
49 82
49 81
49 80
49 79
49 78
49 76
49 74
49 73
49 72
49 71
49 70
49 68
49 67
49 66
49 62
49 59
49 56
49 55
49 54
49 53
49 52
49 51
49 50
48 92
48 91
48 90
48 89
48 88
48 87
48 86
48 85
48 84
48 83
48 82
48 76
48 74
48 73
48 72
48 71
48 70
48 69
48 66
48 65
48 62
48 59
48 54
48 50
48 49
47 92
47 88
47 87
47 86
47 85
47 84
47 83
47 82
47 78
47 76
47 75
47 74
47 73
47 72
47 71
47 70
47 67
47 66
47 62
47 59
47 56
47 54
47 52
47 50
47 49
47 48
46 93
46 92
46 91
46 89
46 88
46 87
46 86
46 85
46 84
46 76
46 75
46 74
46 73
46 72
46 71
46 70
46 69
46 67
46 66
46 63
46 62
46 61
46 59
46 56
46 54
46 49
46 48
46 47
45 93
45 92
45 90
45 89
45 87
45 74
45 73
45 62
45 61
45 59
45 46
44 93
44 92
44 91
44 90
44 89
44 88
44 85
44 75
44 73
44 72
44 71
44 67
44 66
44 63
44 62
44 61
44 59
44 56
44 48
44 46
44 45
43 75
43 73
43 62
43 61
43 60
43 59
43 58
43 44
42 77
42 76
42 75
42 74
42 73
42 72
42 67
42 62
42 61
42 60
42 59
42 58
42 57
42 56
42 54
42 46
42 44
42 43
41 75
41 60
41 59
41 58
41 43
41 42
40 75
40 74
40 58
40 45
40 43
40 42
40 41
39 93
39 89
39 45
39 44
39 43
39 40
38 87
38 86
38 75
38 74
38 47
38 45
38 41
38 40
38 39
37 93
37 90
37 89
37 88
37 87
37 86
37 74
37 47
37 46
37 45
37 44
37 40
37 39
37 38
36 88
36 87
36 86
36 85
36 84
36 82
36 78
36 76
36 74
36 73
36 72
36 56
36 54
36 47
36 46
36 45
36 40
36 38
36 37
35 87
35 86
35 45
35 40
35 38
35 37
35 36
34 87
34 86
34 84
34 82
34 74
34 47
34 37
34 36
34 35
33 35
33 34
32 86
32 84
32 36
32 34
32 33
31 34
31 33
31 32
30 74
30 40
30 38
30 37
30 36
30 35
30 34
30 33
30 32
30 31
29 87
29 86
29 84
29 82
29 78
29 76
29 74
29 72
29 54
29 47
29 38
29 37
29 36
29 35
29 34
29 33
29 32
29 31
29 30
28 86
28 84
28 82
28 78
28 77
28 76
28 74
28 72
28 54
28 47
28 36
28 34
28 32
28 31
28 30
28 29
27 77
27 75
27 74
27 58
27 42
27 40
27 38
27 36
27 32
27 31
27 30
27 29
27 28
26 87
26 86
26 84
26 82
26 78
26 76
26 75
26 74
26 73
26 72
26 56
26 54
26 47
26 46
26 45
26 40
26 39
26 38
26 37
26 36
26 35
26 34
26 31
26 30
26 29
26 28
26 27
25 87
25 86
25 85
25 84
25 83
25 82
25 81
25 80
25 79
25 78
25 77
25 76
25 75
25 74
25 73
25 72
25 59
25 56
25 55
25 54
25 53
25 52
25 49
25 47
25 38
25 36
25 34
25 32
25 30
25 29
25 28
25 27
25 26
24 82
24 78
24 77
24 76
24 75
24 74
24 72
24 58
24 57
24 56
24 55
24 54
24 42
24 41
24 40
24 38
24 36
24 31
24 30
24 29
24 28
24 27
24 26
24 25
23 78
23 77
23 32
23 31
23 30
23 28
23 27
23 26
23 25
23 24
22 79
22 77
22 58
22 57
22 55
22 28
22 27
22 24
22 23
21 82
21 81
21 80
21 79
21 78
21 77
21 55
21 53
21 28
21 25
21 23
21 22
20 78
20 77
20 32
20 31
20 28
20 27
20 25
20 24
20 23
20 22
20 21
19 86
19 84
19 82
19 80
19 78
19 77
19 76
19 74
19 72
19 56
19 54
19 52
19 49
19 47
19 36
19 34
19 32
19 31
19 29
19 28
19 27
19 26
19 25
19 24
19 23
19 22
19 21
19 20
18 82
18 81
18 78
18 32
18 31
18 29
18 28
18 25
18 23
18 20
18 19
17 86
17 84
17 82
17 78
17 76
17 74
17 72
17 54
17 49
17 47
17 36
17 34
17 33
17 32
17 31
17 30
17 29
17 28
17 27
17 26
17 25
17 24
17 23
17 20
17 19
17 18
16 83
16 82
16 81
16 78
16 51
16 50
16 34
16 32
16 29
16 25
16 19
16 18
16 17
15 87
15 86
15 84
15 82
15 74
15 47
15 36
15 35
15 34
15 33
15 32
15 30
15 29
15 28
15 26
15 25
15 19
15 18
15 17
15 16
14 86
14 85
14 84
14 83
14 82
14 51
14 50
14 34
14 29
14 17
14 16
14 15
13 87
13 86
13 84
13 47
13 36
13 35
13 34
13 29
13 17
13 15
13 14
12 85
12 14
12 13
11 90
11 87
11 86
11 37
11 36
11 35
11 34
11 29
11 15
11 14
11 13
11 12
10 91
10 90
10 89
10 88
10 87
10 86
10 85
10 37
10 36
10 13
10 12
10 11
9 91
9 90
9 88
9 87
9 86
9 85
9 83
9 50
9 48
9 14
9 13
9 12
9 11
9 10
8 90
8 88
8 87
8 86
8 85
8 84
8 74
8 48
8 47
8 37
8 36
8 35
8 34
8 29
8 26
8 25
8 17
8 15
8 14
8 13
8 12
8 11
8 10
8 9
7 88
7 87
7 86
7 85
7 84
7 83
7 82
7 81
7 74
7 72
7 51
7 50
7 49
7 48
7 47
7 36
7 34
7 29
7 25
7 17
7 16
7 15
7 14
7 13
7 12
7 11
7 10
7 9
7 8
6 88
6 87
6 86
6 85
6 84
6 83
6 82
6 78
6 76
6 74
6 72
6 56
6 54
6 50
6 49
6 47
6 38
6 37
6 36
6 35
6 34
6 32
6 30
6 29
6 28
6 26
6 25
6 19
6 18
6 17
6 16
6 15
6 14
6 13
6 11
6 10
6 9
6 8
6 7
5 86
5 85
5 84
5 83
5 82
5 81
5 78
5 52
5 51
5 50
5 34
5 29
5 25
5 19
5 18
5 17
5 16
5 15
5 14
5 13
5 9
5 8
5 7
5 6
4 86
4 85
4 84
4 83
4 82
4 81
4 80
4 79
4 78
4 77
4 76
4 74
4 72
4 56
4 54
4 53
4 52
4 51
4 50
4 49
4 47
4 36
4 34
4 32
4 31
4 29
4 28
4 27
4 26
4 25
4 24
4 23
4 21
4 20
4 19
4 18
4 17
4 16
4 15
4 14
4 13
4 8
4 7
4 6
4 5
3 83
3 82
3 81
3 80
3 78
3 52
3 51
3 32
3 28
3 25
3 19
3 18
3 17
3 16
3 15
3 14
3 7
3 6
3 5
3 4
2 84
2 82
2 81
2 80
2 79
2 78
2 77
2 76
2 74
2 72
2 56
2 55
2 54
2 53
2 52
2 49
2 47
2 32
2 29
2 28
2 25
2 23
2 22
2 21
2 20
2 19
2 18
2 17
2 16
2 6
2 5
2 4
2 3
1 81
1 78
1 32
1 31
1 28
1 23
1 22
1 21
1 20
1 19
1 18
1 17
1 16
1 4
1 3
1 2
0 81
0 80
0 79
0 78
0 77
0 55
0 53
0 22
0 21
0 20
0 18
0 4
0 3
0 2
0 1
